&CONTROL
    calculation   = "scf"
    max_seconds   =  8.64000e+04
/

&SYSTEM
    degauss                   =  1.00000e-02
    ecutrho                   =  7.00000e+02
    ecutwfc                   =  7.00000e+01
    ibrav                     = 0
    nat                       = 22
    nspin                     = 2
    ntyp                      = 2
    occupations               = "smearing"
    smearing                  = "gaussian"
    starting_magnetization(1) =  0.00000e+00
    starting_magnetization(2) =  2.00000e-01
/

&ELECTRONS
    conv_thr         =  1.00000e-06
    electron_maxstep = 200
    mixing_beta      =  7.00000e-01
    startingpot      = "atomic"
    startingwfc      = "atomic+random"
/

CELL_PARAMETERS {angstrom}
 21.000000   0.000000   0.000000
  0.000000   4.370000   0.000000
  0.000000   0.000000  16.000000

ATOMIC_SPECIES
C      12.01070  C.pbe-n-kjpaw_psl.1.0.0.UPF
Cu     63.54600  Cu.pbe-spn-kjpaw_psl.1.0.0.UPF

ATOMIC_POSITIONS {crystal}
C       0.314232   0.171406   0.500000
C       0.431213   0.171681   0.500000
C       0.547680   0.171707   0.500000
C       0.664665   0.171484   0.500000
C       0.258317   0.350763   0.500000
C       0.372317   0.338868   0.500000
C       0.489447   0.337397   0.500000
C       0.606577   0.338918   0.500000
C       0.720591   0.350812   0.500000
C       0.258322   0.659973   0.500000
C       0.372320   0.672173   0.500000
C       0.489447   0.673834   0.500000
C       0.606575   0.672221   0.500000
C       0.720575   0.660024   0.500000
C       0.314230   0.839474   0.500000
C       0.431212   0.839490   0.500000
C       0.547683   0.839520   0.500000
C       0.664671   0.839542   0.500000
Cu      0.170614   0.758604   0.500000
Cu      0.170540   0.253589   0.500000
Cu      0.808394   0.756308   0.500000
Cu      0.808271   0.251291   0.500000


