&CONTROL
    calculation   = "scf"
    max_seconds   =  8.64000e+04
/

&SYSTEM
    degauss                   =  1.00000e-02
    ecutrho                   =  7.00000e+02
    ecutwfc                   =  7.00000e+01
    ibrav                     = 0
    nat                       = 22
    nspin                     = 2
    ntyp                      = 2
    occupations               = "smearing"
    smearing                  = "gaussian"
/

&ELECTRONS
    conv_thr         =  1.00000e-06
    electron_maxstep = 200
    mixing_beta      =  7.00000e-01
    startingpot      = "atomic"
    startingwfc      = "atomic+random"
/

K_POINTS {automatic}
 1 20  1  0 0 0

CELL_PARAMETERS {angstrom}
 21.000000   0.000000   0.000000
  0.000000   4.310000   0.000000
  0.000000   0.000000  16.000000

ATOMIC_SPECIES
C      12.01070  C.pbe-n-kjpaw_psl.1.0.0.UPF
H       1.00794  H.pbe-kjpaw_psl.1.0.0.UPF

ATOMIC_POSITIONS {crystal}
C       0.313783   0.182555   0.500000
C       0.431155   0.179090   0.500000
C       0.547731   0.178533   0.500000
C       0.665096   0.181018   0.500000
C       0.256723   0.353325   0.500000
C       0.372159   0.346155   0.500000
C       0.489454   0.343940   0.500000
C       0.606744   0.345063   0.500000
C       0.722166   0.351493   0.500000
C       0.256728   0.673425   0.500000
C       0.372154   0.679818   0.500000
C       0.489444   0.680955   0.500000
C       0.606740   0.678724   0.500000
C       0.722173   0.671590   0.500000
C       0.313801   0.843872   0.500000
C       0.431168   0.846352   0.500000
C       0.547745   0.845797   0.500000
C       0.665114   0.842353   0.500000
H       0.211084   0.792626   0.500000
H       0.211042   0.234532   0.500000
H       0.767869   0.790250   0.500000
H       0.767821   0.232400   0.500000



